NAME /Users/henri/Research/solvers/instances/idol-instances/robust/collection/spp_dkp_Lefebvre_et_al_2026/shortest_path_6_9/uncertainty_sets/discrete_knapsack
ROWS
 N  OBJ
 L  primal_lower
COLUMNS
    MARKER    'MARKER'                 'INTORG'
    y[0,1]     OBJ        0
    y[0,1]     primal_lower -3.01
    y[0,2]     OBJ        0
    y[0,2]     primal_lower -0.2
    y[0,3]     OBJ        0
    y[0,3]     primal_lower -1.53
    y[0,4]     OBJ        0
    y[0,4]     primal_lower -2.87
    y[0,5]     OBJ        0
    y[0,5]     primal_lower -1.27
    y[1,0]     OBJ        0
    y[1,0]     primal_lower -4.23
    y[1,2]     OBJ        0
    y[1,2]     primal_lower -0.7
    y[1,3]     OBJ        0
    y[1,3]     primal_lower -1.73
    y[1,4]     OBJ        0
    y[1,4]     primal_lower -2.63
    y[2,0]     OBJ        0
    y[2,0]     primal_lower -2.17
    y[2,1]     OBJ        0
    y[2,1]     primal_lower -0.78
    y[2,3]     OBJ        0
    y[2,3]     primal_lower -0.97
    y[2,4]     OBJ        0
    y[2,4]     primal_lower -2.88
    y[3,0]     OBJ        0
    y[3,0]     primal_lower -1.11
    y[3,1]     OBJ        0
    y[3,1]     primal_lower -1.83
    y[3,2]     OBJ        0
    y[3,2]     primal_lower -0.21
    y[3,4]     OBJ        0
    y[3,4]     primal_lower -1.44
    y[4,0]     OBJ        0
    y[4,0]     primal_lower -1.3
    y[4,1]     OBJ        0
    y[4,1]     primal_lower -1.99
    y[4,2]     OBJ        0
    y[4,2]     primal_lower -0.27
    y[4,3]     OBJ        0
    y[4,3]     primal_lower -3.36
    y[4,5]     OBJ        0
    y[4,5]     primal_lower -3.25
    y[5,0]     OBJ        0
    y[5,0]     primal_lower -2.52
    y[5,4]     OBJ        0
    y[5,4]     primal_lower -3.18
    u[0,1]     OBJ        0
    u[0,1]     primal_lower 6
    u[0,2]     OBJ        0
    u[0,2]     primal_lower 63
    u[0,3]     OBJ        0
    u[0,3]     primal_lower 43
    u[0,4]     OBJ        0
    u[0,4]     primal_lower 43
    u[0,5]     OBJ        0
    u[0,5]     primal_lower 45
    u[1,0]     OBJ        0
    u[1,0]     primal_lower 77
    u[1,2]     OBJ        0
    u[1,2]     primal_lower 26
    u[1,3]     OBJ        0
    u[1,3]     primal_lower 13
    u[1,4]     OBJ        0
    u[1,4]     primal_lower 27
    u[2,0]     OBJ        0
    u[2,0]     primal_lower 46
    u[2,1]     OBJ        0
    u[2,1]     primal_lower 96
    u[2,3]     OBJ        0
    u[2,3]     primal_lower 10
    u[2,4]     OBJ        0
    u[2,4]     primal_lower 16
    u[3,0]     OBJ        0
    u[3,0]     primal_lower 62
    u[3,1]     OBJ        0
    u[3,1]     primal_lower 98
    u[3,2]     OBJ        0
    u[3,2]     primal_lower 76
    u[3,4]     OBJ        0
    u[3,4]     primal_lower 56
    u[4,0]     OBJ        0
    u[4,0]     primal_lower 39
    u[4,1]     OBJ        0
    u[4,1]     primal_lower 61
    u[4,2]     OBJ        0
    u[4,2]     primal_lower 83
    u[4,3]     OBJ        0
    u[4,3]     primal_lower 58
    u[4,5]     OBJ        0
    u[4,5]     primal_lower 4
    u[5,0]     OBJ        0
    u[5,0]     primal_lower 54
    u[5,4]     OBJ        0
    u[5,4]     primal_lower 84
    MARKER    'MARKER'                 'INTEND'
RHS
    RHS       primal_lower 107
BOUNDS
 LI BND       y[0,1]     0
 UI BND       y[0,1]     1
 LI BND       y[0,2]     0
 UI BND       y[0,2]     1
 LI BND       y[0,3]     0
 UI BND       y[0,3]     1
 LI BND       y[0,4]     0
 UI BND       y[0,4]     1
 LI BND       y[0,5]     0
 UI BND       y[0,5]     1
 LI BND       y[1,0]     0
 UI BND       y[1,0]     1
 LI BND       y[1,2]     0
 UI BND       y[1,2]     1
 LI BND       y[1,3]     0
 UI BND       y[1,3]     1
 LI BND       y[1,4]     0
 UI BND       y[1,4]     1
 LI BND       y[2,0]     0
 UI BND       y[2,0]     1
 LI BND       y[2,1]     0
 UI BND       y[2,1]     1
 LI BND       y[2,3]     0
 UI BND       y[2,3]     1
 LI BND       y[2,4]     0
 UI BND       y[2,4]     1
 LI BND       y[3,0]     0
 UI BND       y[3,0]     1
 LI BND       y[3,1]     0
 UI BND       y[3,1]     1
 LI BND       y[3,2]     0
 UI BND       y[3,2]     1
 LI BND       y[3,4]     0
 UI BND       y[3,4]     1
 LI BND       y[4,0]     0
 UI BND       y[4,0]     1
 LI BND       y[4,1]     0
 UI BND       y[4,1]     1
 LI BND       y[4,2]     0
 UI BND       y[4,2]     1
 LI BND       y[4,3]     0
 UI BND       y[4,3]     1
 LI BND       y[4,5]     0
 UI BND       y[4,5]     1
 LI BND       y[5,0]     0
 UI BND       y[5,0]     1
 LI BND       y[5,4]     0
 UI BND       y[5,4]     1
 LI BND       u[0,1]     0
 UI BND       u[0,1]     1
 LI BND       u[0,2]     0
 UI BND       u[0,2]     1
 LI BND       u[0,3]     0
 UI BND       u[0,3]     1
 LI BND       u[0,4]     0
 UI BND       u[0,4]     1
 LI BND       u[0,5]     0
 UI BND       u[0,5]     1
 LI BND       u[1,0]     0
 UI BND       u[1,0]     1
 LI BND       u[1,2]     0
 UI BND       u[1,2]     1
 LI BND       u[1,3]     0
 UI BND       u[1,3]     1
 LI BND       u[1,4]     0
 UI BND       u[1,4]     1
 LI BND       u[2,0]     0
 UI BND       u[2,0]     1
 LI BND       u[2,1]     0
 UI BND       u[2,1]     1
 LI BND       u[2,3]     0
 UI BND       u[2,3]     1
 LI BND       u[2,4]     0
 UI BND       u[2,4]     1
 LI BND       u[3,0]     0
 UI BND       u[3,0]     1
 LI BND       u[3,1]     0
 UI BND       u[3,1]     1
 LI BND       u[3,2]     0
 UI BND       u[3,2]     1
 LI BND       u[3,4]     0
 UI BND       u[3,4]     1
 LI BND       u[4,0]     0
 UI BND       u[4,0]     1
 LI BND       u[4,1]     0
 UI BND       u[4,1]     1
 LI BND       u[4,2]     0
 UI BND       u[4,2]     1
 LI BND       u[4,3]     0
 UI BND       u[4,3]     1
 LI BND       u[4,5]     0
 UI BND       u[4,5]     1
 LI BND       u[5,0]     0
 UI BND       u[5,0]     1
 LI BND       u[5,4]     0
 UI BND       u[5,4]     1
ENDATA
